2565.11
0 2 3 4 5 6 7 9 17 46 91 100 0
0 10 11 12 13 14 15 18 55 0
0 19 20 21 22 23 24 25 56 57 60 0
0 26 27 28 29 30 31 36 0
0 32 33 34 35 37 38 39 0
0 40 41 42 43 44 45 47 50 51 0
0 48 49 52 53 54 0
0 58 59 61 62 63 64 1 0
0 65 66 67 68 69 0
0 70 71 72 73 74 75 76 77 78 0
0 79 80 81 82 83 84 88 90 96 0
0 85 86 87 98 0
0 94 95 97 99 0
0 16 8 92 93 89 0
